n = 10; 

m=14; 



48	92	78	84	93	39	43	1	65	72
97	52	77	13	12	2	65	93	39	19
91	82	85	17	6	54	87	85	4	88
63	18	45	29	43	41	80	4	31	74
80	83	20	84	69	49	93	39	13	88
81	28	61	69	37	57	36	80	96	22
70	70	36	31	76	63	89	46	25	18
10	46	65	83	75	47	61	28	59	41
6	33	79	10	93	65	26	73	42	35
28	35	74	5	6	9	3	2	35	44
77	80	79	84	93	21	85	64	46	41
89	94	51	74	54	86	22	83	19	71
92	23	55	79	13	89	2	17	97	87
70	70	36	31	76	63	89	46	25	18

 
 		

			
		
